Maximize
  9 x0_0_ + 9 x0_1_ + 9 x0_2_ + 9 x0_3_ + 9 x0_4_ + 2 x0_5_ + 2 x0_6_
   + 9 x0_7_ + 9 x0_8_ + 9 x0_9_ + 360 x1_5_ + 360 x1_6_ + 51 x2_5_
   + 51 x2_6_ + 17 x3_5_ + 17 x3_6_ + 34 x4_5_ + 34 x4_6_ + 9 x5_0_
   + 9 x5_1_ + 9 x5_2_ + 9 x5_3_ + 9 x5_4_ + 2 x5_5_ + 2 x5_6_ + 9 x5_7_
   + 9 x5_8_ + 9 x5_9_ + 144 x6_5_ + 144 x6_6_ + 27 x7_0_ + 27 x7_1_
   + 27 x7_2_ + 27 x7_3_ + 27 x7_4_ + 6 x7_5_ + 6 x7_6_ + 27 x7_7_
   + 27 x7_8_ + 27 x7_9_ + 27 x8_0_ + 27 x8_1_ + 27 x8_2_ + 27 x8_3_
   + 27 x8_4_ + 6 x8_5_ + 6 x8_6_ + 27 x8_7_ + 27 x8_8_ + 27 x8_9_
   + 9 x9_0_ + 9 x9_1_ + 9 x9_2_ + 9 x9_3_ + 9 x9_4_ + 2 x9_5_ + 2 x9_6_
   + 9 x9_7_ + 9 x9_8_ + 9 x9_9_ + 45 x10_0_ + 45 x10_1_ + 45 x10_2_
   + 45 x10_3_ + 45 x10_4_ + 10 x10_5_ + 10 x10_6_ + 45 x10_7_ + 45 x10_8_
   + 45 x10_9_ + 360 x11_5_ + 360 x11_6_ + 72 x12_5_ + 72 x12_6_ + 9 x13_0_
   + 9 x13_1_ + 9 x13_2_ + 9 x13_3_ + 9 x13_4_ + 2 x13_5_ + 2 x13_6_
   + 9 x13_7_ + 9 x13_8_ + 9 x13_9_ + 17 x14_5_ + 17 x14_6_ + 85 x15_5_
   + 85 x15_6_ + 18 x16_0_ + 18 x16_1_ + 18 x16_2_ + 18 x16_3_ + 18 x16_4_
   + 4 x16_5_ + 4 x16_6_ + 18 x16_7_ + 18 x16_8_ + 18 x16_9_ + 27 x17_0_
   + 27 x17_1_ + 27 x17_2_ + 27 x17_3_ + 27 x17_4_ + 6 x17_5_ + 6 x17_6_
   + 27 x17_7_ + 27 x17_8_ + 27 x17_9_ + 36 x18_0_ + 36 x18_1_ + 36 x18_2_
   + 36 x18_3_ + 36 x18_4_ + 8 x18_5_ + 8 x18_6_ + 36 x18_7_ + 36 x18_8_
   + 36 x18_9_ + 18 x19_0_ + 18 x19_1_ + 18 x19_2_ + 18 x19_3_ + 18 x19_4_
   + 4 x19_5_ + 4 x19_6_ + 18 x19_7_ + 18 x19_8_ + 18 x19_9_
Subject To
 R0: x0_0_ + x0_1_ + x0_2_ + x0_3_ + x0_4_ + x0_5_ + x0_6_ + x0_7_ + x0_8_
   + x0_9_ + x0_n_ = 1
 R1: x1_5_ + x1_6_ + x1_n_ = 1
 R2: x2_5_ + x2_6_ + x2_n_ = 1
 R3: x3_5_ + x3_6_ + x3_n_ = 1
 R4: x4_5_ + x4_6_ + x4_n_ = 1
 R5: x5_0_ + x5_1_ + x5_2_ + x5_3_ + x5_4_ + x5_5_ + x5_6_ + x5_7_ + x5_8_
   + x5_9_ + x5_n_ = 1
 R6: x6_5_ + x6_6_ + x6_n_ = 1
 R7: x7_0_ + x7_1_ + x7_2_ + x7_3_ + x7_4_ + x7_5_ + x7_6_ + x7_7_ + x7_8_
   + x7_9_ + x7_n_ = 1
 R8: x8_0_ + x8_1_ + x8_2_ + x8_3_ + x8_4_ + x8_5_ + x8_6_ + x8_7_ + x8_8_
   + x8_9_ + x8_n_ = 1
 R9: x9_0_ + x9_1_ + x9_2_ + x9_3_ + x9_4_ + x9_5_ + x9_6_ + x9_7_ + x9_8_
   + x9_9_ + x9_n_ = 1
 R10: x10_0_ + x10_1_ + x10_2_ + x10_3_ + x10_4_ + x10_5_ + x10_6_ + x10_7_
   + x10_8_ + x10_9_ + x10_n_ = 1
 R11: x11_5_ + x11_6_ + x11_n_ = 1
 R12: x12_5_ + x12_6_ + x12_n_ = 1
 R13: x13_0_ + x13_1_ + x13_2_ + x13_3_ + x13_4_ + x13_5_ + x13_6_ + x13_7_
   + x13_8_ + x13_9_ + x13_n_ = 1
 R14: x14_5_ + x14_6_ + x14_n_ = 1
 R15: x15_5_ + x15_6_ + x15_n_ = 1
 R16: x16_0_ + x16_1_ + x16_2_ + x16_3_ + x16_4_ + x16_5_ + x16_6_ + x16_7_
   + x16_8_ + x16_9_ + x16_n_ = 1
 R17: x17_0_ + x17_1_ + x17_2_ + x17_3_ + x17_4_ + x17_5_ + x17_6_ + x17_7_
   + x17_8_ + x17_9_ + x17_n_ = 1
 R18: x18_0_ + x18_1_ + x18_2_ + x18_3_ + x18_4_ + x18_5_ + x18_6_ + x18_7_
   + x18_8_ + x18_9_ + x18_n_ = 1
 R19: x19_0_ + x19_1_ + x19_2_ + x19_3_ + x19_4_ + x19_5_ + x19_6_ + x19_7_
   + x19_8_ + x19_9_ + x19_n_ = 1
 R20: x0_0_ + x10_0_ <= 1
 R21: x0_1_ + x10_1_ <= 1
 R22: x0_2_ + x10_2_ <= 1
 R23: x0_3_ + x10_3_ <= 1
 R24: x0_4_ + x10_4_ <= 1
 R25: x0_5_ + x10_5_ <= 1
 R26: x0_6_ + x10_6_ <= 1
 R27: x0_7_ + x10_7_ <= 1
 R28: x0_8_ + x10_8_ <= 1
 R29: x0_9_ + x10_9_ <= 1
 R30: x0_0_ + x13_0_ <= 1
 R31: x0_1_ + x13_1_ <= 1
 R32: x0_2_ + x13_2_ <= 1
 R33: x0_3_ + x13_3_ <= 1
 R34: x0_4_ + x13_4_ <= 1
 R35: x0_5_ + x13_5_ <= 1
 R36: x0_6_ + x13_6_ <= 1
 R37: x0_7_ + x13_7_ <= 1
 R38: x0_8_ + x13_8_ <= 1
 R39: x0_9_ + x13_9_ <= 1
 R40: x0_0_ + x18_0_ <= 1
 R41: x0_1_ + x18_1_ <= 1
 R42: x0_2_ + x18_2_ <= 1
 R43: x0_3_ + x18_3_ <= 1
 R44: x0_4_ + x18_4_ <= 1
 R45: x0_5_ + x18_5_ <= 1
 R46: x0_6_ + x18_6_ <= 1
 R47: x0_7_ + x18_7_ <= 1
 R48: x0_8_ + x18_8_ <= 1
 R49: x0_9_ + x18_9_ <= 1
 R50: x0_5_ + x1_5_ <= 1
 R51: x0_6_ + x1_6_ <= 1
 R52: x1_5_ + x6_5_ <= 1
 R53: x1_6_ + x6_6_ <= 1
 R54: x1_5_ + x7_5_ <= 1
 R55: x1_6_ + x7_6_ <= 1
 R56: x1_5_ + x8_5_ <= 1
 R57: x1_6_ + x8_6_ <= 1
 R58: x1_5_ + x9_5_ <= 1
 R59: x1_6_ + x9_6_ <= 1
 R60: x1_5_ + x10_5_ <= 1
 R61: x1_6_ + x10_6_ <= 1
 R62: x1_5_ + x11_5_ <= 1
 R63: x1_6_ + x11_6_ <= 1
 R64: x1_5_ + x12_5_ <= 1
 R65: x1_6_ + x12_6_ <= 1
 R66: x1_5_ + x13_5_ <= 1
 R67: x1_6_ + x13_6_ <= 1
 R68: x1_5_ + x16_5_ <= 1
 R69: x1_6_ + x16_6_ <= 1
 R70: x1_5_ + x17_5_ <= 1
 R71: x1_6_ + x17_6_ <= 1
 R72: x1_5_ + x18_5_ <= 1
 R73: x1_6_ + x18_6_ <= 1
 R74: x1_5_ + x19_5_ <= 1
 R75: x1_6_ + x19_6_ <= 1
 R76: x2_5_ + x4_5_ <= 1
 R77: x2_6_ + x4_6_ <= 1
 R78: x2_5_ + x5_5_ <= 1
 R79: x2_6_ + x5_6_ <= 1
 R80: x2_5_ + x7_5_ <= 1
 R81: x2_6_ + x7_6_ <= 1
 R82: x2_5_ + x11_5_ <= 1
 R83: x2_6_ + x11_6_ <= 1
 R84: x2_5_ + x15_5_ <= 1
 R85: x2_6_ + x15_6_ <= 1
 R86: x3_5_ + x10_5_ <= 1
 R87: x3_6_ + x10_6_ <= 1
 R88: x3_5_ + x18_5_ <= 1
 R89: x3_6_ + x18_6_ <= 1
 R90: x1_5_ + x4_5_ <= 1
 R91: x1_6_ + x4_6_ <= 1
 R92: x2_5_ + x4_5_ <= 1
 R93: x2_6_ + x4_6_ <= 1
 R94: x4_5_ + x7_5_ <= 1
 R95: x4_6_ + x7_6_ <= 1
 R96: x4_5_ + x11_5_ <= 1
 R97: x4_6_ + x11_6_ <= 1
 R98: x4_5_ + x14_5_ <= 1
 R99: x4_6_ + x14_6_ <= 1
 R100: x4_5_ + x15_5_ <= 1
 R101: x4_6_ + x15_6_ <= 1
 R102: x4_5_ + x16_5_ <= 1
 R103: x4_6_ + x16_6_ <= 1
 R104: x4_5_ + x17_5_ <= 1
 R105: x4_6_ + x17_6_ <= 1
 R106: x5_0_ + x7_0_ <= 1
 R107: x5_1_ + x7_1_ <= 1
 R108: x5_2_ + x7_2_ <= 1
 R109: x5_3_ + x7_3_ <= 1
 R110: x5_4_ + x7_4_ <= 1
 R111: x5_5_ + x7_5_ <= 1
 R112: x5_6_ + x7_6_ <= 1
 R113: x5_7_ + x7_7_ <= 1
 R114: x5_8_ + x7_8_ <= 1
 R115: x5_9_ + x7_9_ <= 1
 R116: x1_5_ + x6_5_ <= 1
 R117: x1_6_ + x6_6_ <= 1
 R118: x6_5_ + x8_5_ <= 1
 R119: x6_6_ + x8_6_ <= 1
 R120: x6_5_ + x9_5_ <= 1
 R121: x6_6_ + x9_6_ <= 1
 R122: x6_5_ + x10_5_ <= 1
 R123: x6_6_ + x10_6_ <= 1
 R124: x6_5_ + x11_5_ <= 1
 R125: x6_6_ + x11_6_ <= 1
 R126: x6_5_ + x16_5_ <= 1
 R127: x6_6_ + x16_6_ <= 1
 R128: x6_5_ + x17_5_ <= 1
 R129: x6_6_ + x17_6_ <= 1
 R130: x6_5_ + x18_5_ <= 1
 R131: x6_6_ + x18_6_ <= 1
 R132: x6_5_ + x19_5_ <= 1
 R133: x6_6_ + x19_6_ <= 1
 R134: x5_0_ + x7_0_ <= 1
 R135: x5_1_ + x7_1_ <= 1
 R136: x5_2_ + x7_2_ <= 1
 R137: x5_3_ + x7_3_ <= 1
 R138: x5_4_ + x7_4_ <= 1
 R139: x5_5_ + x7_5_ <= 1
 R140: x5_6_ + x7_6_ <= 1
 R141: x5_7_ + x7_7_ <= 1
 R142: x5_8_ + x7_8_ <= 1
 R143: x5_9_ + x7_9_ <= 1
 R144: x7_0_ + x16_0_ <= 1
 R145: x7_1_ + x16_1_ <= 1
 R146: x7_2_ + x16_2_ <= 1
 R147: x7_3_ + x16_3_ <= 1
 R148: x7_4_ + x16_4_ <= 1
 R149: x7_5_ + x16_5_ <= 1
 R150: x7_6_ + x16_6_ <= 1
 R151: x7_7_ + x16_7_ <= 1
 R152: x7_8_ + x16_8_ <= 1
 R153: x7_9_ + x16_9_ <= 1
 R154: x7_0_ + x17_0_ <= 1
 R155: x7_1_ + x17_1_ <= 1
 R156: x7_2_ + x17_2_ <= 1
 R157: x7_3_ + x17_3_ <= 1
 R158: x7_4_ + x17_4_ <= 1
 R159: x7_5_ + x17_5_ <= 1
 R160: x7_6_ + x17_6_ <= 1
 R161: x7_7_ + x17_7_ <= 1
 R162: x7_8_ + x17_8_ <= 1
 R163: x7_9_ + x17_9_ <= 1
 R164: x8_0_ + x9_0_ <= 1
 R165: x8_1_ + x9_1_ <= 1
 R166: x8_2_ + x9_2_ <= 1
 R167: x8_3_ + x9_3_ <= 1
 R168: x8_4_ + x9_4_ <= 1
 R169: x8_5_ + x9_5_ <= 1
 R170: x8_6_ + x9_6_ <= 1
 R171: x8_7_ + x9_7_ <= 1
 R172: x8_8_ + x9_8_ <= 1
 R173: x8_9_ + x9_9_ <= 1
 R174: x8_0_ + x10_0_ <= 1
 R175: x8_1_ + x10_1_ <= 1
 R176: x8_2_ + x10_2_ <= 1
 R177: x8_3_ + x10_3_ <= 1
 R178: x8_4_ + x10_4_ <= 1
 R179: x8_5_ + x10_5_ <= 1
 R180: x8_6_ + x10_6_ <= 1
 R181: x8_7_ + x10_7_ <= 1
 R182: x8_8_ + x10_8_ <= 1
 R183: x8_9_ + x10_9_ <= 1
 R184: x8_0_ + x16_0_ <= 1
 R185: x8_1_ + x16_1_ <= 1
 R186: x8_2_ + x16_2_ <= 1
 R187: x8_3_ + x16_3_ <= 1
 R188: x8_4_ + x16_4_ <= 1
 R189: x8_5_ + x16_5_ <= 1
 R190: x8_6_ + x16_6_ <= 1
 R191: x8_7_ + x16_7_ <= 1
 R192: x8_8_ + x16_8_ <= 1
 R193: x8_9_ + x16_9_ <= 1
 R194: x8_0_ + x17_0_ <= 1
 R195: x8_1_ + x17_1_ <= 1
 R196: x8_2_ + x17_2_ <= 1
 R197: x8_3_ + x17_3_ <= 1
 R198: x8_4_ + x17_4_ <= 1
 R199: x8_5_ + x17_5_ <= 1
 R200: x8_6_ + x17_6_ <= 1
 R201: x8_7_ + x17_7_ <= 1
 R202: x8_8_ + x17_8_ <= 1
 R203: x8_9_ + x17_9_ <= 1
 R204: x8_0_ + x18_0_ <= 1
 R205: x8_1_ + x18_1_ <= 1
 R206: x8_2_ + x18_2_ <= 1
 R207: x8_3_ + x18_3_ <= 1
 R208: x8_4_ + x18_4_ <= 1
 R209: x8_5_ + x18_5_ <= 1
 R210: x8_6_ + x18_6_ <= 1
 R211: x8_7_ + x18_7_ <= 1
 R212: x8_8_ + x18_8_ <= 1
 R213: x8_9_ + x18_9_ <= 1
 R214: x8_0_ + x19_0_ <= 1
 R215: x8_1_ + x19_1_ <= 1
 R216: x8_2_ + x19_2_ <= 1
 R217: x8_3_ + x19_3_ <= 1
 R218: x8_4_ + x19_4_ <= 1
 R219: x8_5_ + x19_5_ <= 1
 R220: x8_6_ + x19_6_ <= 1
 R221: x8_7_ + x19_7_ <= 1
 R222: x8_8_ + x19_8_ <= 1
 R223: x8_9_ + x19_9_ <= 1
 R224: x8_0_ + x9_0_ <= 1
 R225: x8_1_ + x9_1_ <= 1
 R226: x8_2_ + x9_2_ <= 1
 R227: x8_3_ + x9_3_ <= 1
 R228: x8_4_ + x9_4_ <= 1
 R229: x8_5_ + x9_5_ <= 1
 R230: x8_6_ + x9_6_ <= 1
 R231: x8_7_ + x9_7_ <= 1
 R232: x8_8_ + x9_8_ <= 1
 R233: x8_9_ + x9_9_ <= 1
 R234: x9_0_ + x16_0_ <= 1
 R235: x9_1_ + x16_1_ <= 1
 R236: x9_2_ + x16_2_ <= 1
 R237: x9_3_ + x16_3_ <= 1
 R238: x9_4_ + x16_4_ <= 1
 R239: x9_5_ + x16_5_ <= 1
 R240: x9_6_ + x16_6_ <= 1
 R241: x9_7_ + x16_7_ <= 1
 R242: x9_8_ + x16_8_ <= 1
 R243: x9_9_ + x16_9_ <= 1
 R244: x9_0_ + x17_0_ <= 1
 R245: x9_1_ + x17_1_ <= 1
 R246: x9_2_ + x17_2_ <= 1
 R247: x9_3_ + x17_3_ <= 1
 R248: x9_4_ + x17_4_ <= 1
 R249: x9_5_ + x17_5_ <= 1
 R250: x9_6_ + x17_6_ <= 1
 R251: x9_7_ + x17_7_ <= 1
 R252: x9_8_ + x17_8_ <= 1
 R253: x9_9_ + x17_9_ <= 1
 R254: x0_0_ + x10_0_ <= 1
 R255: x0_1_ + x10_1_ <= 1
 R256: x0_2_ + x10_2_ <= 1
 R257: x0_3_ + x10_3_ <= 1
 R258: x0_4_ + x10_4_ <= 1
 R259: x0_5_ + x10_5_ <= 1
 R260: x0_6_ + x10_6_ <= 1
 R261: x0_7_ + x10_7_ <= 1
 R262: x0_8_ + x10_8_ <= 1
 R263: x0_9_ + x10_9_ <= 1
 R264: x8_0_ + x10_0_ <= 1
 R265: x8_1_ + x10_1_ <= 1
 R266: x8_2_ + x10_2_ <= 1
 R267: x8_3_ + x10_3_ <= 1
 R268: x8_4_ + x10_4_ <= 1
 R269: x8_5_ + x10_5_ <= 1
 R270: x8_6_ + x10_6_ <= 1
 R271: x8_7_ + x10_7_ <= 1
 R272: x8_8_ + x10_8_ <= 1
 R273: x8_9_ + x10_9_ <= 1
 R274: x10_0_ + x13_0_ <= 1
 R275: x10_1_ + x13_1_ <= 1
 R276: x10_2_ + x13_2_ <= 1
 R277: x10_3_ + x13_3_ <= 1
 R278: x10_4_ + x13_4_ <= 1
 R279: x10_5_ + x13_5_ <= 1
 R280: x10_6_ + x13_6_ <= 1
 R281: x10_7_ + x13_7_ <= 1
 R282: x10_8_ + x13_8_ <= 1
 R283: x10_9_ + x13_9_ <= 1
 R284: x10_0_ + x17_0_ <= 1
 R285: x10_1_ + x17_1_ <= 1
 R286: x10_2_ + x17_2_ <= 1
 R287: x10_3_ + x17_3_ <= 1
 R288: x10_4_ + x17_4_ <= 1
 R289: x10_5_ + x17_5_ <= 1
 R290: x10_6_ + x17_6_ <= 1
 R291: x10_7_ + x17_7_ <= 1
 R292: x10_8_ + x17_8_ <= 1
 R293: x10_9_ + x17_9_ <= 1
 R294: x10_0_ + x18_0_ <= 1
 R295: x10_1_ + x18_1_ <= 1
 R296: x10_2_ + x18_2_ <= 1
 R297: x10_3_ + x18_3_ <= 1
 R298: x10_4_ + x18_4_ <= 1
 R299: x10_5_ + x18_5_ <= 1
 R300: x10_6_ + x18_6_ <= 1
 R301: x10_7_ + x18_7_ <= 1
 R302: x10_8_ + x18_8_ <= 1
 R303: x10_9_ + x18_9_ <= 1
 R304: x10_0_ + x19_0_ <= 1
 R305: x10_1_ + x19_1_ <= 1
 R306: x10_2_ + x19_2_ <= 1
 R307: x10_3_ + x19_3_ <= 1
 R308: x10_4_ + x19_4_ <= 1
 R309: x10_5_ + x19_5_ <= 1
 R310: x10_6_ + x19_6_ <= 1
 R311: x10_7_ + x19_7_ <= 1
 R312: x10_8_ + x19_8_ <= 1
 R313: x10_9_ + x19_9_ <= 1
 R314: x1_5_ + x11_5_ <= 1
 R315: x1_6_ + x11_6_ <= 1
 R316: x6_5_ + x11_5_ <= 1
 R317: x6_6_ + x11_6_ <= 1
 R318: x7_5_ + x11_5_ <= 1
 R319: x7_6_ + x11_6_ <= 1
 R320: x8_5_ + x11_5_ <= 1
 R321: x8_6_ + x11_6_ <= 1
 R322: x9_5_ + x11_5_ <= 1
 R323: x9_6_ + x11_6_ <= 1
 R324: x10_5_ + x11_5_ <= 1
 R325: x10_6_ + x11_6_ <= 1
 R326: x11_5_ + x12_5_ <= 1
 R327: x11_6_ + x12_6_ <= 1
 R328: x11_5_ + x16_5_ <= 1
 R329: x11_6_ + x16_6_ <= 1
 R330: x11_5_ + x17_5_ <= 1
 R331: x11_6_ + x17_6_ <= 1
 R332: x11_5_ + x18_5_ <= 1
 R333: x11_6_ + x18_6_ <= 1
 R334: x11_5_ + x19_5_ <= 1
 R335: x11_6_ + x19_6_ <= 1
 R336: x1_5_ + x12_5_ <= 1
 R337: x1_6_ + x12_6_ <= 1
 R338: x8_5_ + x12_5_ <= 1
 R339: x8_6_ + x12_6_ <= 1
 R340: x10_5_ + x12_5_ <= 1
 R341: x10_6_ + x12_6_ <= 1
 R342: x11_5_ + x12_5_ <= 1
 R343: x11_6_ + x12_6_ <= 1
 R344: x12_5_ + x18_5_ <= 1
 R345: x12_6_ + x18_6_ <= 1
 R346: x12_5_ + x19_5_ <= 1
 R347: x12_6_ + x19_6_ <= 1
 R348: x0_0_ + x13_0_ <= 1
 R349: x0_1_ + x13_1_ <= 1
 R350: x0_2_ + x13_2_ <= 1
 R351: x0_3_ + x13_3_ <= 1
 R352: x0_4_ + x13_4_ <= 1
 R353: x0_5_ + x13_5_ <= 1
 R354: x0_6_ + x13_6_ <= 1
 R355: x0_7_ + x13_7_ <= 1
 R356: x0_8_ + x13_8_ <= 1
 R357: x0_9_ + x13_9_ <= 1
 R358: x10_0_ + x13_0_ <= 1
 R359: x10_1_ + x13_1_ <= 1
 R360: x10_2_ + x13_2_ <= 1
 R361: x10_3_ + x13_3_ <= 1
 R362: x10_4_ + x13_4_ <= 1
 R363: x10_5_ + x13_5_ <= 1
 R364: x10_6_ + x13_6_ <= 1
 R365: x10_7_ + x13_7_ <= 1
 R366: x10_8_ + x13_8_ <= 1
 R367: x10_9_ + x13_9_ <= 1
 R368: x13_0_ + x18_0_ <= 1
 R369: x13_1_ + x18_1_ <= 1
 R370: x13_2_ + x18_2_ <= 1
 R371: x13_3_ + x18_3_ <= 1
 R372: x13_4_ + x18_4_ <= 1
 R373: x13_5_ + x18_5_ <= 1
 R374: x13_6_ + x18_6_ <= 1
 R375: x13_7_ + x18_7_ <= 1
 R376: x13_8_ + x18_8_ <= 1
 R377: x13_9_ + x18_9_ <= 1
 R378: x1_5_ + x14_5_ <= 1
 R379: x1_6_ + x14_6_ <= 1
 R380: x4_5_ + x14_5_ <= 1
 R381: x4_6_ + x14_6_ <= 1
 R382: x7_5_ + x14_5_ <= 1
 R383: x7_6_ + x14_6_ <= 1
 R384: x11_5_ + x14_5_ <= 1
 R385: x11_6_ + x14_6_ <= 1
 R386: x14_5_ + x15_5_ <= 1
 R387: x14_6_ + x15_6_ <= 1
 R388: x14_5_ + x16_5_ <= 1
 R389: x14_6_ + x16_6_ <= 1
 R390: x14_5_ + x17_5_ <= 1
 R391: x14_6_ + x17_6_ <= 1
 R392: x1_5_ + x15_5_ <= 1
 R393: x1_6_ + x15_6_ <= 1
 R394: x2_5_ + x15_5_ <= 1
 R395: x2_6_ + x15_6_ <= 1
 R396: x4_5_ + x15_5_ <= 1
 R397: x4_6_ + x15_6_ <= 1
 R398: x6_5_ + x15_5_ <= 1
 R399: x6_6_ + x15_6_ <= 1
 R400: x7_5_ + x15_5_ <= 1
 R401: x7_6_ + x15_6_ <= 1
 R402: x8_5_ + x15_5_ <= 1
 R403: x8_6_ + x15_6_ <= 1
 R404: x9_5_ + x15_5_ <= 1
 R405: x9_6_ + x15_6_ <= 1
 R406: x10_5_ + x15_5_ <= 1
 R407: x10_6_ + x15_6_ <= 1
 R408: x11_5_ + x15_5_ <= 1
 R409: x11_6_ + x15_6_ <= 1
 R410: x12_5_ + x15_5_ <= 1
 R411: x12_6_ + x15_6_ <= 1
 R412: x14_5_ + x15_5_ <= 1
 R413: x14_6_ + x15_6_ <= 1
 R414: x15_5_ + x16_5_ <= 1
 R415: x15_6_ + x16_6_ <= 1
 R416: x15_5_ + x17_5_ <= 1
 R417: x15_6_ + x17_6_ <= 1
 R418: x15_5_ + x18_5_ <= 1
 R419: x15_6_ + x18_6_ <= 1
 R420: x15_5_ + x19_5_ <= 1
 R421: x15_6_ + x19_6_ <= 1
 R422: x7_0_ + x16_0_ <= 1
 R423: x7_1_ + x16_1_ <= 1
 R424: x7_2_ + x16_2_ <= 1
 R425: x7_3_ + x16_3_ <= 1
 R426: x7_4_ + x16_4_ <= 1
 R427: x7_5_ + x16_5_ <= 1
 R428: x7_6_ + x16_6_ <= 1
 R429: x7_7_ + x16_7_ <= 1
 R430: x7_8_ + x16_8_ <= 1
 R431: x7_9_ + x16_9_ <= 1
 R432: x8_0_ + x16_0_ <= 1
 R433: x8_1_ + x16_1_ <= 1
 R434: x8_2_ + x16_2_ <= 1
 R435: x8_3_ + x16_3_ <= 1
 R436: x8_4_ + x16_4_ <= 1
 R437: x8_5_ + x16_5_ <= 1
 R438: x8_6_ + x16_6_ <= 1
 R439: x8_7_ + x16_7_ <= 1
 R440: x8_8_ + x16_8_ <= 1
 R441: x8_9_ + x16_9_ <= 1
 R442: x9_0_ + x16_0_ <= 1
 R443: x9_1_ + x16_1_ <= 1
 R444: x9_2_ + x16_2_ <= 1
 R445: x9_3_ + x16_3_ <= 1
 R446: x9_4_ + x16_4_ <= 1
 R447: x9_5_ + x16_5_ <= 1
 R448: x9_6_ + x16_6_ <= 1
 R449: x9_7_ + x16_7_ <= 1
 R450: x9_8_ + x16_8_ <= 1
 R451: x9_9_ + x16_9_ <= 1
 R452: x16_0_ + x17_0_ <= 1
 R453: x16_1_ + x17_1_ <= 1
 R454: x16_2_ + x17_2_ <= 1
 R455: x16_3_ + x17_3_ <= 1
 R456: x16_4_ + x17_4_ <= 1
 R457: x16_5_ + x17_5_ <= 1
 R458: x16_6_ + x17_6_ <= 1
 R459: x16_7_ + x17_7_ <= 1
 R460: x16_8_ + x17_8_ <= 1
 R461: x16_9_ + x17_9_ <= 1
 R462: x7_0_ + x17_0_ <= 1
 R463: x7_1_ + x17_1_ <= 1
 R464: x7_2_ + x17_2_ <= 1
 R465: x7_3_ + x17_3_ <= 1
 R466: x7_4_ + x17_4_ <= 1
 R467: x7_5_ + x17_5_ <= 1
 R468: x7_6_ + x17_6_ <= 1
 R469: x7_7_ + x17_7_ <= 1
 R470: x7_8_ + x17_8_ <= 1
 R471: x7_9_ + x17_9_ <= 1
 R472: x8_0_ + x17_0_ <= 1
 R473: x8_1_ + x17_1_ <= 1
 R474: x8_2_ + x17_2_ <= 1
 R475: x8_3_ + x17_3_ <= 1
 R476: x8_4_ + x17_4_ <= 1
 R477: x8_5_ + x17_5_ <= 1
 R478: x8_6_ + x17_6_ <= 1
 R479: x8_7_ + x17_7_ <= 1
 R480: x8_8_ + x17_8_ <= 1
 R481: x8_9_ + x17_9_ <= 1
 R482: x9_0_ + x17_0_ <= 1
 R483: x9_1_ + x17_1_ <= 1
 R484: x9_2_ + x17_2_ <= 1
 R485: x9_3_ + x17_3_ <= 1
 R486: x9_4_ + x17_4_ <= 1
 R487: x9_5_ + x17_5_ <= 1
 R488: x9_6_ + x17_6_ <= 1
 R489: x9_7_ + x17_7_ <= 1
 R490: x9_8_ + x17_8_ <= 1
 R491: x9_9_ + x17_9_ <= 1
 R492: x10_0_ + x17_0_ <= 1
 R493: x10_1_ + x17_1_ <= 1
 R494: x10_2_ + x17_2_ <= 1
 R495: x10_3_ + x17_3_ <= 1
 R496: x10_4_ + x17_4_ <= 1
 R497: x10_5_ + x17_5_ <= 1
 R498: x10_6_ + x17_6_ <= 1
 R499: x10_7_ + x17_7_ <= 1
 R500: x10_8_ + x17_8_ <= 1
 R501: x10_9_ + x17_9_ <= 1
 R502: x16_0_ + x17_0_ <= 1
 R503: x16_1_ + x17_1_ <= 1
 R504: x16_2_ + x17_2_ <= 1
 R505: x16_3_ + x17_3_ <= 1
 R506: x16_4_ + x17_4_ <= 1
 R507: x16_5_ + x17_5_ <= 1
 R508: x16_6_ + x17_6_ <= 1
 R509: x16_7_ + x17_7_ <= 1
 R510: x16_8_ + x17_8_ <= 1
 R511: x16_9_ + x17_9_ <= 1
 R512: x17_0_ + x18_0_ <= 1
 R513: x17_1_ + x18_1_ <= 1
 R514: x17_2_ + x18_2_ <= 1
 R515: x17_3_ + x18_3_ <= 1
 R516: x17_4_ + x18_4_ <= 1
 R517: x17_5_ + x18_5_ <= 1
 R518: x17_6_ + x18_6_ <= 1
 R519: x17_7_ + x18_7_ <= 1
 R520: x17_8_ + x18_8_ <= 1
 R521: x17_9_ + x18_9_ <= 1
 R522: x17_0_ + x19_0_ <= 1
 R523: x17_1_ + x19_1_ <= 1
 R524: x17_2_ + x19_2_ <= 1
 R525: x17_3_ + x19_3_ <= 1
 R526: x17_4_ + x19_4_ <= 1
 R527: x17_5_ + x19_5_ <= 1
 R528: x17_6_ + x19_6_ <= 1
 R529: x17_7_ + x19_7_ <= 1
 R530: x17_8_ + x19_8_ <= 1
 R531: x17_9_ + x19_9_ <= 1
 R532: x0_0_ + x18_0_ <= 1
 R533: x0_1_ + x18_1_ <= 1
 R534: x0_2_ + x18_2_ <= 1
 R535: x0_3_ + x18_3_ <= 1
 R536: x0_4_ + x18_4_ <= 1
 R537: x0_5_ + x18_5_ <= 1
 R538: x0_6_ + x18_6_ <= 1
 R539: x0_7_ + x18_7_ <= 1
 R540: x0_8_ + x18_8_ <= 1
 R541: x0_9_ + x18_9_ <= 1
 R542: x8_0_ + x18_0_ <= 1
 R543: x8_1_ + x18_1_ <= 1
 R544: x8_2_ + x18_2_ <= 1
 R545: x8_3_ + x18_3_ <= 1
 R546: x8_4_ + x18_4_ <= 1
 R547: x8_5_ + x18_5_ <= 1
 R548: x8_6_ + x18_6_ <= 1
 R549: x8_7_ + x18_7_ <= 1
 R550: x8_8_ + x18_8_ <= 1
 R551: x8_9_ + x18_9_ <= 1
 R552: x10_0_ + x18_0_ <= 1
 R553: x10_1_ + x18_1_ <= 1
 R554: x10_2_ + x18_2_ <= 1
 R555: x10_3_ + x18_3_ <= 1
 R556: x10_4_ + x18_4_ <= 1
 R557: x10_5_ + x18_5_ <= 1
 R558: x10_6_ + x18_6_ <= 1
 R559: x10_7_ + x18_7_ <= 1
 R560: x10_8_ + x18_8_ <= 1
 R561: x10_9_ + x18_9_ <= 1
 R562: x13_0_ + x18_0_ <= 1
 R563: x13_1_ + x18_1_ <= 1
 R564: x13_2_ + x18_2_ <= 1
 R565: x13_3_ + x18_3_ <= 1
 R566: x13_4_ + x18_4_ <= 1
 R567: x13_5_ + x18_5_ <= 1
 R568: x13_6_ + x18_6_ <= 1
 R569: x13_7_ + x18_7_ <= 1
 R570: x13_8_ + x18_8_ <= 1
 R571: x13_9_ + x18_9_ <= 1
 R572: x17_0_ + x18_0_ <= 1
 R573: x17_1_ + x18_1_ <= 1
 R574: x17_2_ + x18_2_ <= 1
 R575: x17_3_ + x18_3_ <= 1
 R576: x17_4_ + x18_4_ <= 1
 R577: x17_5_ + x18_5_ <= 1
 R578: x17_6_ + x18_6_ <= 1
 R579: x17_7_ + x18_7_ <= 1
 R580: x17_8_ + x18_8_ <= 1
 R581: x17_9_ + x18_9_ <= 1
 R582: x18_0_ + x19_0_ <= 1
 R583: x18_1_ + x19_1_ <= 1
 R584: x18_2_ + x19_2_ <= 1
 R585: x18_3_ + x19_3_ <= 1
 R586: x18_4_ + x19_4_ <= 1
 R587: x18_5_ + x19_5_ <= 1
 R588: x18_6_ + x19_6_ <= 1
 R589: x18_7_ + x19_7_ <= 1
 R590: x18_8_ + x19_8_ <= 1
 R591: x18_9_ + x19_9_ <= 1
 R592: x8_0_ + x19_0_ <= 1
 R593: x8_1_ + x19_1_ <= 1
 R594: x8_2_ + x19_2_ <= 1
 R595: x8_3_ + x19_3_ <= 1
 R596: x8_4_ + x19_4_ <= 1
 R597: x8_5_ + x19_5_ <= 1
 R598: x8_6_ + x19_6_ <= 1
 R599: x8_7_ + x19_7_ <= 1
 R600: x8_8_ + x19_8_ <= 1
 R601: x8_9_ + x19_9_ <= 1
 R602: x10_0_ + x19_0_ <= 1
 R603: x10_1_ + x19_1_ <= 1
 R604: x10_2_ + x19_2_ <= 1
 R605: x10_3_ + x19_3_ <= 1
 R606: x10_4_ + x19_4_ <= 1
 R607: x10_5_ + x19_5_ <= 1
 R608: x10_6_ + x19_6_ <= 1
 R609: x10_7_ + x19_7_ <= 1
 R610: x10_8_ + x19_8_ <= 1
 R611: x10_9_ + x19_9_ <= 1
 R612: x17_0_ + x19_0_ <= 1
 R613: x17_1_ + x19_1_ <= 1
 R614: x17_2_ + x19_2_ <= 1
 R615: x17_3_ + x19_3_ <= 1
 R616: x17_4_ + x19_4_ <= 1
 R617: x17_5_ + x19_5_ <= 1
 R618: x17_6_ + x19_6_ <= 1
 R619: x17_7_ + x19_7_ <= 1
 R620: x17_8_ + x19_8_ <= 1
 R621: x17_9_ + x19_9_ <= 1
 R622: x18_0_ + x19_0_ <= 1
 R623: x18_1_ + x19_1_ <= 1
 R624: x18_2_ + x19_2_ <= 1
 R625: x18_3_ + x19_3_ <= 1
 R626: x18_4_ + x19_4_ <= 1
 R627: x18_5_ + x19_5_ <= 1
 R628: x18_6_ + x19_6_ <= 1
 R629: x18_7_ + x19_7_ <= 1
 R630: x18_8_ + x19_8_ <= 1
 R631: x18_9_ + x19_9_ <= 1
 R632: <= 1
 R633: 9 x0_0_ + 9 x0_1_ + 9 x0_2_ + 9 x0_3_ + 9 x0_4_ + 2 x0_5_ + 2 x0_6_
   + 9 x0_7_ + 9 x0_8_ + 9 x0_9_ + 360 x1_5_ + 360 x1_6_ + 51 x2_5_
   + 51 x2_6_ + 17 x3_5_ + 17 x3_6_ + 34 x4_5_ + 34 x4_6_ + 9 x5_0_
   + 9 x5_1_ + 9 x5_2_ + 9 x5_3_ + 9 x5_4_ + 2 x5_5_ + 2 x5_6_ + 9 x5_7_
   + 9 x5_8_ + 9 x5_9_ + 144 x6_5_ + 144 x6_6_ + 27 x7_0_ + 27 x7_1_
   + 27 x7_2_ + 27 x7_3_ + 27 x7_4_ + 6 x7_5_ + 6 x7_6_ + 27 x7_7_
   + 27 x7_8_ + 27 x7_9_ + 27 x8_0_ + 27 x8_1_ + 27 x8_2_ + 27 x8_3_
   + 27 x8_4_ + 6 x8_5_ + 6 x8_6_ + 27 x8_7_ + 27 x8_8_ + 27 x8_9_
   + 9 x9_0_ + 9 x9_1_ + 9 x9_2_ + 9 x9_3_ + 9 x9_4_ + 2 x9_5_ + 2 x9_6_
   + 9 x9_7_ + 9 x9_8_ + 9 x9_9_ + 45 x10_0_ + 45 x10_1_ + 45 x10_2_
   + 45 x10_3_ + 45 x10_4_ + 10 x10_5_ + 10 x10_6_ + 45 x10_7_ + 45 x10_8_
   + 45 x10_9_ + 360 x11_5_ + 360 x11_6_ + 72 x12_5_ + 72 x12_6_ + 9 x13_0_
   + 9 x13_1_ + 9 x13_2_ + 9 x13_3_ + 9 x13_4_ + 2 x13_5_ + 2 x13_6_
   + 9 x13_7_ + 9 x13_8_ + 9 x13_9_ + 17 x14_5_ + 17 x14_6_ + 85 x15_5_
   + 85 x15_6_ + 18 x16_0_ + 18 x16_1_ + 18 x16_2_ + 18 x16_3_ + 18 x16_4_
   + 4 x16_5_ + 4 x16_6_ + 18 x16_7_ + 18 x16_8_ + 18 x16_9_ + 27 x17_0_
   + 27 x17_1_ + 27 x17_2_ + 27 x17_3_ + 27 x17_4_ + 6 x17_5_ + 6 x17_6_
   + 27 x17_7_ + 27 x17_8_ + 27 x17_9_ + 36 x18_0_ + 36 x18_1_ + 36 x18_2_
   + 36 x18_3_ + 36 x18_4_ + 8 x18_5_ + 8 x18_6_ + 36 x18_7_ + 36 x18_8_
   + 36 x18_9_ + 18 x19_0_ + 18 x19_1_ + 18 x19_2_ + 18 x19_3_ + 18 x19_4_
   + 4 x19_5_ + 4 x19_6_ + 18 x19_7_ + 18 x19_8_ + 18 x19_9_ >= 1022
 R634: x0_0_ + x1_5_ + x2_5_ + x3_5_ + x4_n_ + x5_3_ + x6_n_ + x7_4_
   + x8_0_ + x9_4_ + x10_4_ + x11_6_ + x12_n_ + x13_8_ + x14_n_ + x15_n_
   + x16_3_ + x17_1_ + x18_3_ + x19_2_ <= 19
 R635: x0_2_ + x1_5_ + x2_5_ + x3_6_ + x4_n_ + x5_2_ + x6_n_ + x7_3_
   + x8_1_ + x9_3_ + x10_3_ + x11_6_ + x12_n_ + x13_7_ + x14_n_ + x15_n_
   + x16_0_ + x17_2_ + x18_0_ + x19_8_ <= 19
 R636: x0_2_ + x1_5_ + x2_5_ + x3_5_ + x4_n_ + x5_2_ + x6_n_ + x7_0_
   + x8_8_ + x9_0_ + x10_3_ + x11_6_ + x12_n_ + x13_0_ + x14_n_ + x15_n_
   + x16_3_ + x17_2_ + x18_1_ + x19_0_ <= 19
Bounds
Binaries
 x0_0_ x0_1_ x0_2_ x0_3_ x0_4_ x0_5_ x0_6_ x0_7_ x0_8_ x0_9_ x0_n_ x1_5_
 x1_6_ x1_n_ x2_5_ x2_6_ x2_n_ x3_5_ x3_6_ x3_n_ x4_5_ x4_6_ x4_n_ x5_0_
 x5_1_ x5_2_ x5_3_ x5_4_ x5_5_ x5_6_ x5_7_ x5_8_ x5_9_ x5_n_ x6_5_ x6_6_
 x6_n_ x7_0_ x7_1_ x7_2_ x7_3_ x7_4_ x7_5_ x7_6_ x7_7_ x7_8_ x7_9_ x7_n_
 x8_0_ x8_1_ x8_2_ x8_3_ x8_4_ x8_5_ x8_6_ x8_7_ x8_8_ x8_9_ x8_n_ x9_0_
 x9_1_ x9_2_ x9_3_ x9_4_ x9_5_ x9_6_ x9_7_ x9_8_ x9_9_ x9_n_ x10_0_ x10_1_
 x10_2_ x10_3_ x10_4_ x10_5_ x10_6_ x10_7_ x10_8_ x10_9_ x10_n_ x11_5_
 x11_6_ x11_n_ x12_5_ x12_6_ x12_n_ x13_0_ x13_1_ x13_2_ x13_3_ x13_4_
 x13_5_ x13_6_ x13_7_ x13_8_ x13_9_ x13_n_ x14_5_ x14_6_ x14_n_ x15_5_
 x15_6_ x15_n_ x16_0_ x16_1_ x16_2_ x16_3_ x16_4_ x16_5_ x16_6_ x16_7_
 x16_8_ x16_9_ x16_n_ x17_0_ x17_1_ x17_2_ x17_3_ x17_4_ x17_5_ x17_6_
 x17_7_ x17_8_ x17_9_ x17_n_ x18_0_ x18_1_ x18_2_ x18_3_ x18_4_ x18_5_
 x18_6_ x18_7_ x18_8_ x18_9_ x18_n_ x19_0_ x19_1_ x19_2_ x19_3_ x19_4_
 x19_5_ x19_6_ x19_7_ x19_8_ x19_9_ x19_n_
End
